# Solution for model Food_Bank
# Objective value = 6.5792045116573852e+05
x_1_44 1
x_1_198 1
x_1_202 0
x_1_47 0
x_1_197 1
x_1_199 1
x_1_29 1
x_1_97 0
x_1_15 1
x_1_43 0
x_1_123 1
x_1_42 0
x_1_205 1
x_1_122 0
x_1_133 1
x_1_220 0
x_1_101 0
x_1_86 0
x_1_17 1
x_1_130 0
x_1_208 0
x_1_214 0
x_1_146 0
y_44_28 1
y_44_19 0
y_44_10 0
y_44_27 0
y_44_11 0
y_44_2 0
y_44_12 0
y_44_25 0
y_44_9 0
y_44_76 0
y_198_28 0
y_198_19 1
y_198_10 0
y_198_27 0
y_198_11 0
y_198_2 0
y_198_12 0
y_198_25 0
y_198_9 0
y_198_76 0
y_202_28 0
y_202_19 0
y_202_10 0
y_202_27 0
y_202_11 0
y_202_2 0
y_202_12 0
y_202_25 0
y_202_9 0
y_202_76 0
y_47_28 0
y_47_19 0
y_47_10 0
y_47_27 0
y_47_11 0
y_47_2 0
y_47_12 0
y_47_25 0
y_47_9 0
y_47_76 0
y_197_28 0
y_197_19 0
y_197_10 0
y_197_27 1
y_197_11 0
y_197_2 0
y_197_12 0
y_197_25 0
y_197_9 0
y_197_76 0
y_199_28 0
y_199_19 0
y_199_10 0
y_199_27 0
y_199_11 0
y_199_2 0
y_199_12 0
y_199_25 1
y_199_9 0
y_199_76 0
y_29_28 0
y_29_19 0
y_29_10 0
y_29_27 0
y_29_11 0
y_29_2 1
y_29_12 0
y_29_25 0
y_29_9 0
y_29_76 0
y_97_28 0
y_97_19 0
y_97_10 0
y_97_27 0
y_97_11 0
y_97_2 0
y_97_12 0
y_97_25 0
y_97_9 0
y_97_76 0
y_15_28 0
y_15_19 0
y_15_10 1
y_15_27 0
y_15_11 0
y_15_2 0
y_15_12 0
y_15_25 0
y_15_9 0
y_15_76 0
y_43_28 0
y_43_19 0
y_43_10 0
y_43_27 0
y_43_11 0
y_43_2 0
y_43_12 0
y_43_25 0
y_43_9 0
y_43_76 0
y_123_28 0
y_123_19 0
y_123_10 0
y_123_27 0
y_123_11 1
y_123_2 0
y_123_12 0
y_123_25 0
y_123_9 0
y_123_76 0
y_42_28 0
y_42_19 0
y_42_10 0
y_42_27 0
y_42_11 0
y_42_2 0
y_42_12 0
y_42_25 0
y_42_9 0
y_42_76 0
y_205_28 0
y_205_19 0
y_205_10 0
y_205_27 0
y_205_11 0
y_205_2 0
y_205_12 0
y_205_25 0
y_205_9 0
y_205_76 1
y_122_28 0
y_122_19 0
y_122_10 0
y_122_27 0
y_122_11 0
y_122_2 0
y_122_12 0
y_122_25 0
y_122_9 0
y_122_76 0
y_133_28 0
y_133_19 0
y_133_10 0
y_133_27 0
y_133_11 0
y_133_2 0
y_133_12 1
y_133_25 0
y_133_9 0
y_133_76 0
y_220_28 0
y_220_19 0
y_220_10 0
y_220_27 0
y_220_11 0
y_220_2 0
y_220_12 0
y_220_25 0
y_220_9 0
y_220_76 0
y_101_28 0
y_101_19 0
y_101_10 0
y_101_27 0
y_101_11 0
y_101_2 0
y_101_12 0
y_101_25 0
y_101_9 0
y_101_76 0
y_86_28 0
y_86_19 0
y_86_10 0
y_86_27 0
y_86_11 0
y_86_2 0
y_86_12 0
y_86_25 0
y_86_9 0
y_86_76 0
y_17_28 0
y_17_19 0
y_17_10 0
y_17_27 0
y_17_11 0
y_17_2 0
y_17_12 0
y_17_25 0
y_17_9 1
y_17_76 0
y_130_28 0
y_130_19 0
y_130_10 0
y_130_27 0
y_130_11 0
y_130_2 0
y_130_12 0
y_130_25 0
y_130_9 0
y_130_76 0
y_208_28 0
y_208_19 0
y_208_10 0
y_208_27 0
y_208_11 0
y_208_2 0
y_208_12 0
y_208_25 0
y_208_9 0
y_208_76 0
y_214_28 0
y_214_19 0
y_214_10 0
y_214_27 0
y_214_11 0
y_214_2 0
y_214_12 0
y_214_25 0
y_214_9 0
y_214_76 0
y_146_28 0
y_146_19 0
y_146_10 0
y_146_27 0
y_146_11 0
y_146_2 0
y_146_12 0
y_146_25 0
y_146_9 0
y_146_76 0
aFP_1_44 2.4068010896161491e+03
aFP_1_198 3.2891867012000057e+03
aFP_1_202 0
aFP_1_47 0
aFP_1_197 2.2964881143249431e+03
aFP_1_199 3.1426181550808660e+03
aFP_1_29 1.5402302591393236e+03
aFP_1_97 0
aFP_1_15 2.6400494275994756e+03
aFP_1_43 0
aFP_1_123 2.7255584670428520e+03
aFP_1_42 0
aFP_1_205 2.3175986803220640e+03
aFP_1_122 0
aFP_1_133 2.3723026373629637e+03
aFP_1_220 0
aFP_1_101 0
aFP_1_86 0
aFP_1_17 2.4407496190195598e+03
aFP_1_130 0
aFP_1_208 0
aFP_1_214 0
aFP_1_146 0
aPZ_44_28 2.4068010895942712e+03
aPZ_198_28 0
aPZ_202_28 0
aPZ_47_28 0
aPZ_197_28 0
aPZ_199_28 0
aPZ_29_28 0
aPZ_97_28 0
aPZ_15_28 0
aPZ_43_28 0
aPZ_123_28 0
aPZ_42_28 0
aPZ_205_28 0
aPZ_122_28 0
aPZ_133_28 0
aPZ_220_28 0
aPZ_101_28 0
aPZ_86_28 0
aPZ_17_28 0
aPZ_130_28 0
aPZ_208_28 0
aPZ_214_28 0
aPZ_146_28 0
aPZ_44_19 0
aPZ_198_19 3.2891867011962863e+03
aPZ_202_19 0
aPZ_47_19 0
aPZ_197_19 0
aPZ_199_19 0
aPZ_29_19 0
aPZ_97_19 0
aPZ_15_19 0
aPZ_43_19 0
aPZ_123_19 0
aPZ_42_19 0
aPZ_205_19 0
aPZ_122_19 0
aPZ_133_19 0
aPZ_220_19 0
aPZ_101_19 0
aPZ_86_19 0
aPZ_17_19 0
aPZ_130_19 0
aPZ_208_19 0
aPZ_214_19 0
aPZ_146_19 0
aPZ_44_10 0
aPZ_198_10 0
aPZ_202_10 0
aPZ_47_10 0
aPZ_197_10 0
aPZ_199_10 0
aPZ_29_10 0
aPZ_97_10 0
aPZ_15_10 2.6400494275992442e+03
aPZ_43_10 0
aPZ_123_10 0
aPZ_42_10 0
aPZ_205_10 0
aPZ_122_10 0
aPZ_133_10 0
aPZ_220_10 0
aPZ_101_10 0
aPZ_86_10 0
aPZ_17_10 0
aPZ_130_10 0
aPZ_208_10 0
aPZ_214_10 0
aPZ_146_10 0
aPZ_44_27 0
aPZ_198_27 0
aPZ_202_27 0
aPZ_47_27 0
aPZ_197_27 2.2964881143479352e+03
aPZ_199_27 0
aPZ_29_27 0
aPZ_97_27 0
aPZ_15_27 0
aPZ_43_27 0
aPZ_123_27 0
aPZ_42_27 0
aPZ_205_27 0
aPZ_122_27 0
aPZ_133_27 0
aPZ_220_27 0
aPZ_101_27 0
aPZ_86_27 0
aPZ_17_27 0
aPZ_130_27 0
aPZ_208_27 0
aPZ_214_27 0
aPZ_146_27 0
aPZ_44_11 0
aPZ_198_11 0
aPZ_202_11 0
aPZ_47_11 0
aPZ_197_11 0
aPZ_199_11 0
aPZ_29_11 0
aPZ_97_11 0
aPZ_15_11 0
aPZ_43_11 0
aPZ_123_11 2.7255584670428293e+03
aPZ_42_11 0
aPZ_205_11 0
aPZ_122_11 0
aPZ_133_11 0
aPZ_220_11 0
aPZ_101_11 0
aPZ_86_11 0
aPZ_17_11 0
aPZ_130_11 0
aPZ_208_11 0
aPZ_214_11 0
aPZ_146_11 0
aPZ_44_2 0
aPZ_198_2 0
aPZ_202_2 0
aPZ_47_2 0
aPZ_197_2 0
aPZ_199_2 0
aPZ_29_2 1.5402302591393186e+03
aPZ_97_2 0
aPZ_15_2 0
aPZ_43_2 0
aPZ_123_2 0
aPZ_42_2 0
aPZ_205_2 0
aPZ_122_2 0
aPZ_133_2 0
aPZ_220_2 0
aPZ_101_2 0
aPZ_86_2 0
aPZ_17_2 0
aPZ_130_2 0
aPZ_208_2 0
aPZ_214_2 0
aPZ_146_2 0
aPZ_44_12 0
aPZ_198_12 0
aPZ_202_12 0
aPZ_47_12 0
aPZ_197_12 0
aPZ_199_12 0
aPZ_29_12 0
aPZ_97_12 0
aPZ_15_12 0
aPZ_43_12 0
aPZ_123_12 0
aPZ_42_12 0
aPZ_205_12 0
aPZ_122_12 0
aPZ_133_12 2.3723026373629409e+03
aPZ_220_12 0
aPZ_101_12 0
aPZ_86_12 0
aPZ_17_12 0
aPZ_130_12 0
aPZ_208_12 0
aPZ_214_12 0
aPZ_146_12 0
aPZ_44_25 0
aPZ_198_25 0
aPZ_202_25 0
aPZ_47_25 0
aPZ_197_25 0
aPZ_199_25 3.1426181550808433e+03
aPZ_29_25 0
aPZ_97_25 0
aPZ_15_25 0
aPZ_43_25 0
aPZ_123_25 0
aPZ_42_25 0
aPZ_205_25 0
aPZ_122_25 0
aPZ_133_25 0
aPZ_220_25 0
aPZ_101_25 0
aPZ_86_25 0
aPZ_17_25 0
aPZ_130_25 0
aPZ_208_25 0
aPZ_214_25 0
aPZ_146_25 0
aPZ_44_9 0
aPZ_198_9 0
aPZ_202_9 0
aPZ_47_9 0
aPZ_197_9 0
aPZ_199_9 0
aPZ_29_9 0
aPZ_97_9 0
aPZ_15_9 0
aPZ_43_9 0
aPZ_123_9 0
aPZ_42_9 0
aPZ_205_9 0
aPZ_122_9 0
aPZ_133_9 0
aPZ_220_9 0
aPZ_101_9 0
aPZ_86_9 0
aPZ_17_9 2.4407496190195216e+03
aPZ_130_9 0
aPZ_208_9 0
aPZ_214_9 0
aPZ_146_9 0
aPZ_44_76 0
aPZ_198_76 0
aPZ_202_76 0
aPZ_47_76 0
aPZ_197_76 0
aPZ_199_76 0
aPZ_29_76 0
aPZ_97_76 0
aPZ_15_76 0
aPZ_43_76 0
aPZ_123_76 0
aPZ_42_76 0
aPZ_205_76 2.3175986803191768e+03
aPZ_122_76 0
aPZ_133_76 0
aPZ_220_76 0
aPZ_101_76 0
aPZ_86_76 0
aPZ_17_76 0
aPZ_130_76 0
aPZ_208_76 0
aPZ_214_76 0
aPZ_146_76 0
nT_1_44 1
nT_1_198 1
nT_1_202 0
nT_1_47 0
nT_1_197 1
nT_1_199 1
nT_1_29 1
nT_1_97 0
nT_1_15 1
nT_1_43 0
nT_1_123 1
nT_1_42 0
nT_1_205 1
nT_1_122 0
nT_1_133 1
nT_1_220 0
nT_1_101 0
nT_1_86 0
nT_1_17 1
nT_1_130 0
nT_1_208 0
nT_1_214 0
nT_1_146 0
ort_1_44 5.8536585365853657e+00
ort_1_198 5.8536585365853657e+00
ort_1_202 0
ort_1_47 0
ort_1_197 5.8536585365853657e+00
ort_1_199 5.8536585365853657e+00
ort_1_29 5.8536585365853657e+00
ort_1_97 0
ort_1_15 5.8536585365853657e+00
ort_1_43 0
ort_1_123 5.8536585365853657e+00
ort_1_42 0
ort_1_205 6.6666666666666670e+00
ort_1_122 0
ort_1_133 5.8536585365853657e+00
ort_1_220 0
ort_1_101 0
ort_1_86 0
ort_1_17 240
ort_1_130 0
ort_1_208 0
ort_1_214 0
ort_1_146 0
opt_1_44 5.7266518154451287e+00
opt_1_198 5.5491992015239520e+00
opt_1_202 0
opt_1_47 0
opt_1_197 5.4721674642241176e+00
opt_1_199 5.3831942954963159e+00
opt_1_29 5.4499803569600429e+00
opt_1_97 0
opt_1_15 5.3883227318698488e+00
opt_1_43 0
opt_1_123 5.3773806132315505e+00
opt_1_42 0
opt_1_205 6.1641200659821616e+00
opt_1_122 0
opt_1_133 5.3150434047155439e+00
opt_1_220 0
opt_1_101 0
opt_1_86 0
opt_1_17 239.404629185709
opt_1_130 0
opt_1_208 0
opt_1_214 0
opt_1_146 0
dt_44_28 1.0103803813201635e+00
dt_44_19 0
dt_44_10 0
dt_44_27 0
dt_44_11 0
dt_44_2 0
dt_44_12 0
dt_44_25 0
dt_44_9 0
dt_44_76 0
dt_198_28 0
dt_198_19 1.2232153454124766e+00
dt_198_10 0
dt_198_27 0
dt_198_11 0
dt_198_2 0
dt_198_12 0
dt_198_25 0
dt_198_9 0
dt_198_76 0
dt_202_28 0
dt_202_19 0
dt_202_10 0
dt_202_27 0
dt_202_11 0
dt_202_2 0
dt_202_12 0
dt_202_25 0
dt_202_9 0
dt_202_76 0
dt_47_28 0
dt_47_19 0
dt_47_10 0
dt_47_27 0
dt_47_11 0
dt_47_2 0
dt_47_12 0
dt_47_25 0
dt_47_9 0
dt_47_76 0
dt_197_28 0
dt_197_19 0
dt_197_10 0
dt_197_27 0.955770839846144
dt_197_11 0
dt_197_2 0
dt_197_12 0
dt_197_25 0
dt_197_9 0
dt_197_76 0
dt_199_28 0
dt_199_19 0
dt_199_10 0
dt_199_27 0
dt_199_11 0
dt_199_2 0
dt_199_12 0
dt_199_25 1.1479163542726474e+00
dt_199_9 0
dt_199_76 0
dt_29_28 0
dt_29_19 0
dt_29_10 0
dt_29_27 0
dt_29_11 0
dt_29_2 5.9922083239976842e-01
dt_29_12 0
dt_29_25 0
dt_29_9 0
dt_29_76 0
dt_97_28 0
dt_97_19 0
dt_97_10 0
dt_97_27 0
dt_97_11 0
dt_97_2 0
dt_97_12 0
dt_97_25 0
dt_97_9 0
dt_97_76 0
dt_15_28 0
dt_15_19 0
dt_15_10 1.0120172996578736e+00
dt_15_27 0
dt_15_11 0
dt_15_2 0
dt_15_12 0
dt_15_25 0
dt_15_9 0
dt_15_76 0
dt_43_28 0
dt_43_19 0
dt_43_10 0
dt_43_27 0
dt_43_11 0
dt_43_2 0
dt_43_12 0
dt_43_25 0
dt_43_9 0
dt_43_76 0
dt_123_28 0
dt_123_19 0
dt_123_10 0
dt_123_27 0
dt_123_11 1.1379454634592956e+00
dt_123_2 0
dt_123_12 0
dt_123_25 0
dt_123_9 0
dt_123_76 0
dt_42_28 0
dt_42_19 0
dt_42_10 0
dt_42_27 0
dt_42_11 0
dt_42_2 0
dt_42_12 0
dt_42_25 0
dt_42_9 0
dt_42_76 0
dt_205_28 0
dt_205_19 0
dt_205_10 0
dt_205_27 0
dt_205_11 0
dt_205_2 0
dt_205_12 0
dt_205_25 0
dt_205_9 0
dt_205_76 1.0443847059021572e+00
dt_122_28 0
dt_122_19 0
dt_122_10 0
dt_122_27 0
dt_122_11 0
dt_122_2 0
dt_122_12 0
dt_122_25 0
dt_122_9 0
dt_122_76 0
dt_133_28 0
dt_133_19 0
dt_133_10 0
dt_133_27 0
dt_133_11 0
dt_133_2 0
dt_133_12 1.0223059230713045e+00
dt_133_25 0
dt_133_9 0
dt_133_76 0
dt_220_28 0
dt_220_19 0
dt_220_10 0
dt_220_27 0
dt_220_11 0
dt_220_2 0
dt_220_12 0
dt_220_25 0
dt_220_9 0
dt_220_76 0
dt_101_28 0
dt_101_19 0
dt_101_10 0
dt_101_27 0
dt_101_11 0
dt_101_2 0
dt_101_12 0
dt_101_25 0
dt_101_9 0
dt_101_76 0
dt_86_28 0
dt_86_19 0
dt_86_10 0
dt_86_27 0
dt_86_11 0
dt_86_2 0
dt_86_12 0
dt_86_25 0
dt_86_9 0
dt_86_76 0
dt_17_28 0
dt_17_19 0
dt_17_10 0
dt_17_27 0
dt_17_11 0
dt_17_2 0
dt_17_12 0
dt_17_25 0
dt_17_9 9.4226236663503138e-01
dt_17_76 0
dt_130_28 0
dt_130_19 0
dt_130_10 0
dt_130_27 0
dt_130_11 0
dt_130_2 0
dt_130_12 0
dt_130_25 0
dt_130_9 0
dt_130_76 0
dt_208_28 0
dt_208_19 0
dt_208_10 0
dt_208_27 0
dt_208_11 0
dt_208_2 0
dt_208_12 0
dt_208_25 0
dt_208_9 0
dt_208_76 0
dt_214_28 0
dt_214_19 0
dt_214_10 0
dt_214_27 0
dt_214_11 0
dt_214_2 0
dt_214_12 0
dt_214_25 0
dt_214_9 0
dt_214_76 0
dt_146_28 0
dt_146_19 0
dt_146_10 0
dt_146_27 0
dt_146_11 0
dt_146_2 0
dt_146_12 0
dt_146_25 0
dt_146_9 0
dt_146_76 0
ut_1_44 8.4238038131499327e-01
ut_1_198 1.1512153454298963e+00
ut_1_202 0
ut_1_47 0
ut_1_197 8.0377083986207376e-01
ut_1_199 1.0999163542900148e+00
ut_1_29 5.3908059071059189e-01
ut_1_97 0
ut_1_15 9.2401729967528623e-01
ut_1_43 0
ut_1_123 9.5394546347670961e-01
ut_1_42 0
ut_1_205 8.1115953812487152e-01
ut_1_122 0
ut_1_133 8.3030592308875539e-01
ut_1_220 0
ut_1_101 0
ut_1_86 0
ut_1_17 8.5426236670353572e-01
ut_1_130 0
ut_1_208 0
ut_1_214 0
ut_1_146 0
fFP_1_44 41
fFP_1_198 41
fFP_1_202 0
fFP_1_47 0
fFP_1_197 41
fFP_1_199 41
fFP_1_29 41
fFP_1_97 0
fFP_1_15 41
fFP_1_43 0
fFP_1_123 41
fFP_1_42 0
fFP_1_205 36
fFP_1_122 0
fFP_1_133 41
fFP_1_220 0
fFP_1_101 0
fFP_1_86 0
fFP_1_17 1
fFP_1_130 0
fFP_1_208 0
fFP_1_214 0
fFP_1_146 0
dt_28 1.0103803813250307e+00
dt_19 1.2232153454170325e+00
dt_10 1.0120172996626327e+00
dt_27 9.5577083985105915e-01
dt_11 1.13794546346403
dt_2 5.9922083257251268e-01
dt_12 1.0223059230761979e+00
dt_25 1.1479163542772186e+00
dt_9 9.4226236665674357e-01
dt_76 1.0443847059699494e+00
dtt_28 4.1425595634336652e+01
dtt_19 5.0151829162104541e+01
dtt_10 4.1492709286177217e+01
dtt_27 3.9186604433904357e+01
dtt_11 4.6655764002033820e+01
dtt_2 2.4568054135488623e+01
dtt_12 4.1914542846134580e+01
dtt_25 4.7064570525372666e+01
dtt_9 3.8632757033261605e+01
dtt_76 42.8197729447807
dt_last_28 0
dt_last_19 0
dt_last_10 0
dt_last_27 0
dt_last_11 0
dt_last_2 0
dt_last_12 0
dt_last_25 0
dt_last_9 0
dt_last_76 0
dep_cost 6.2109681910905719e+05
log_cost 3.6823632056681352e+04
